584,336
858,434
1108,545
1166,563
1108,545
937,489
996,177
910,91
804,237
735,300
575,460
548,474
363,724
505,648
894,514
858,434
735,512
505,648
575,460
624,424
729,371
721,486
618,343
735,300
663,288
804,237
801,406
1166,249
977,110
617,207
584,336
727,264
237,476
363,724
300,787
269,705
281,610
444,369
618,343
536,301
415,213
356,355
444,369
586,219
584,336
